120 150
1 83
2 37
3 98 8 9 11 12 14 16 17 18 19 20 21 23 27 28 29 30 32 33 35 36 37 40 41 48 49 51 52 54 55 57 61 62 65 66 68 69 70 71 72 73 75 76 78 79 80 83 84 88 89 93 96 98 99 100 105 107 108 110 111 113 114 115 116 117 118
4 85
5 88
6 95
7 29
8 35 9 11 12 14 16 17 19 20 23 27 28 29 32 33 35 36 37 40 41 48 49 51 52 54 55 57 62 65 66 68 69 70 71 72 73 76 78 79 80 83 84 88 89 93 96 98 99 100 105 108 110 111 113 114 115 116 117 118
9 100 11 12 16 19 23 27 29 35 36 37 40 41 48 49 51 52 57 65 66 68 70 73 76 78 79 80 83 89 96 98 105 108 113 114 115
10 55
11 48 12 14 16 19 20 23 27 29 32 35 36 37 40 41 48 49 51 52 54 55 57 65 66 68 69 70 73 76 78 79 80 83 84 88 89 93 96 98 105 108 110 113 114 115 117 118
12 27 14 16 17 18 19 20 21 23 27 28 29 30 32 33 35 36 37 40 41 48 49 51 52 54 55 57 61 62 65 66 68 69 70 71 72 73 75 76 78 79 80 83 84 88 89 93 96 98 99 100 105 107 108 110 111 113 114 115 116 117 118
13 20
14 66 16 19 23 27 29 36 37 40 41 48 49 51 52 57 65 66 68 70 73 78 79 80 83 89 96 98 105 108 113 114
15 62
16 52 19 20 23 27 28 29 32 33 35 36 37 40 41 48 49 51 52 54 55 57 62 65 66 68 69 70 73 76 78 79 80 83 84 88 89 93 96 98 105 108 110 113 114 115 117 118
17 88 19 23 29 37 40 41 48 52 57 68 70 73 78 80 89 96 98 105 108
18 59 19 23 29 37 40 41 57 68 73 78 80 89 96 98 105 108
19 97 20 21 23 27 28 29 30 32 33 35 36 37 40 41 48 49 51 52 54 55 57 61 62 65 66 68 69 70 71 72 73 75 76 78 79 80 83 84 88 89 93 96 98 99 100 105 107 108 110 111 113 114 115 116 117 118
20 91 23 27 29 35 36 37 40 41 48 49 51 52 57 65 66 68 70 73 76 78 79 80 83 89 96 98 105 108 113 114 115 118
21 81 23 29 37 40 41 68 73 78 80 89 96 98 105 108
22 81
23 86 27 28 29 30 32 33 35 36 37 40 41 48 49 51 52 54 55 57 62 65 66 68 69 70 71 72 73 76 78 79 80 83 84 88 89 93 96 98 99 100 105 108 110 111 113 114 115 116 117 118
24 48
25 43
26 60
27 72 29 32 35 36 37 40 41 48 49 51 52 54 55 57 65 66 68 69 70 73 76 78 79 80 83 84 88 89 93 96 98 105 108 110 113 114 115 117 118
28 88 29 36 37 40 41 48 51 52 57 65 68 70 73 78 80 83 89 96 98 105 108 114
29 90 30 32 33 35 36 37 40 41 48 49 51 52 54 55 57 62 65 66 68 69 70 71 72 73 76 78 79 80 83 84 88 89 93 96 98 99 100 105 108 110 111 113 114 115 116 117 118
30 48 37 40 41 68 73 78 80 89 96 98 105 108
31 38
32 60 36 37 40 41 48 49 51 52 57 65 66 68 70 73 78 79 80 83 89 96 98 105 108 113 114
33 53 37 40 41 48 52 57 65 68 70 73 78 80 89 96 98 105 108 114
34 55 98
35 90 36 37 40 41 48 49 51 52 55 57 65 66 68 70 73 76 78 79 80 83 84 89 93 96 98 105 108 110 113 114 115 118
36 48 37 40 41 48 49 51 52 54 55 57 65 66 68 69 70 73 76 78 79 80 83 84 88 89 93 96 98 105 108 110 113 114 115 117 118
37 55 40 41 48 49 51 52 54 55 57 62 65 66 68 69 70 71 72 73 76 78 79 80 83 84 88 89 93 96 98 99 100 105 108 110 111 113 114 115 116 117 118
38 57
39 59
40 25 41 48 49 51 52 54 55 57 62 65 66 68 69 70 71 72 73 76 78 79 80 83 84 88 89 93 96 98 99 100 105 108 110 111 113 114 115 116 117 118
41 51 48 49 51 52 54 55 57 62 65 66 68 69 70 71 72 73 76 78 79 80 83 84 88 89 93 96 98 99 100 105 108 110 111 113 114 115 116 117 118
42 22
43 43
44 31
45 52
46 89
47 96
48 58 49 51 52 54 55 57 62 65 66 68 69 70 71 72 73 76 78 79 80 83 84 88 89 93 96 98 99 105 108 110 111 113 114 115 116 117 118
49 63 51 52 55 57 65 66 68 69 70 73 76 78 79 80 83 84 88 89 93 96 98 105 108 110 113 114 115 117 118
50 27
51 46 52 54 55 57 65 66 68 69 70 73 76 78 79 80 83 84 88 89 93 96 98 105 108 110 113 114 115 117 118
52 43 54 55 57 62 65 66 68 69 70 71 72 73 76 78 79 80 83 84 88 89 93 96 98 105 108 110 113 114 115 116 117 118
53 30
54 44 57 65 66 68 70 73 78 79 80 83 89 96 98 105 108 113 114
55 71 57 65 66 68 70 73 76 78 79 80 83 89 96 98 105 108 113 114 115
56 66
57 64 62 65 66 68 69 70 71 72 73 76 78 79 80 83 84 88 89 93 96 98 99 100 105 108 110 111 113 114 115 116 117 118
58 28
59 83
60 88
61 42 68 73 80 96 98 105
62 92 68 70 73 78 80 89 96 98 105 108 114
63 95
64 36
65 24 66 68 69 70 73 76 78 79 80 83 84 88 89 93 96 98 105 108 110 113 114 115 117 118
66 62 68 69 70 73 76 78 79 80 83 84 88 89 93 96 98 105 108 110 113 114 115 117 118
67 44
68 82 69 70 71 72 73 75 76 78 79 80 83 84 88 89 93 96 98 99 100 105 107 108 110 111 113 114 115 116 117 118
69 59 70 73 76 78 79 80 83 89 96 98 105 108 113 114
70 31 71 72 73 76 78 79 80 83 84 88 89 93 96 98 99 105 108 110 113 114 115 116 117 118
71 96 73 78 80 89 96 98 105 108 114
72 44 73 78 80 89 96 98 105 108 114
73 61 75 76 78 79 80 83 84 88 89 93 96 98 99 100 105 107 108 110 111 113 114 115 116 117 118
74 78
75 72 80 96 98 105
76 62 78 79 80 83 84 89 93 96 98 105 108 110 113 114 115 117 118
77 76
78 65 79 80 83 84 88 89 93 96 98 99 100 105 108 110 111 113 114 115 116 117 118
79 22 80 83 84 88 89 93 96 98 105 108 110 113 114 115 117 118
80 41 83 84 88 89 93 96 98 99 100 105 107 108 110 111 113 114 115 116 117 118
81 27
82 85
83 80 84 88 89 93 96 98 105 108 110 113 114 115 117 118
84 72 89 96 98 105 108 113 114
85 100
86 29
87 27
88 43 89 96 98 105 108 113 114
89 83 93 96 98 99 100 105 108 110 111 113 114 115 116 117 118
90 32
91 33 98
92 53
93 95 96 98 105 108 113 114 115
94 99
95 20
96 23 98 99 100 105 107 108 110 111 113 114 115 116 117 118
97 72
98 50 99 100 105 107 108 110 111 113 114 115 116 117 118
99 50 105 108
100 27 105 108
101 89
102 53
103 75
104 81
105 34 107 108 110 111 113 114 115 116 117 118
106 27
107 69
108 48 110 111 113 114 115 116 117 118
109 84
110 37 113 114 115
111 69
112 54
113 51 114 115 117 118
114 49 115 117 118
115 49 118
116 54
117 100
118 55
119 45
120 83
